============================[ Problem Statistics ]=============================|                                                                             ||  Number of variables:          4242                                         ||  Number of clauses:           10477                                         ||  Parse time:                   0.87 s                                       ||                                                                             |============================[ Search Statistics ]==============================| Conflicts |          ORIGINAL         |          LEARNT          | Progress ||           |    Vars  Clauses Literals |    Limit  Clauses Lit/Cl |          |===============================================================================|       100 |    1591     6682  1378463 |     2450      100     53 | 62.501 % ||       250 |    1591     6682  1378463 |     2695      250     75 | 62.495 % |===============================================================================restarts              : 4conflicts             : 464            (356 /sec)decisions             : 822            (0.00 % random) (630 /sec)propagations          : 13773          (10554 /sec)conflict literals     : 39490          (94.44 % deleted)CPU time              : 1.305 sSATISFIABLE